AES/1_2_8/ssaes_r1-20_c2_rw1_e8_f0_k1-20_aes_min_box_aes_mc_bidirectional/ExperimentMinisat_r8_k7cnf_2011-11-07-134402/Result
WARNING: for repeatability, setting FPU to use double precision
============================[ Problem Statistics ]=============================
|                                                                             |
|  Number of variables:           688                                         |
|  Number of clauses:            8656                                         |
|  Parse time:                   0.01 s                                       |
|  Eliminated clauses:           0.01 Mb                                      |
|  Simplification time:          0.03 s                                       |
|                                                                             |
=============================[ Search Statistics ]==============================
| Conflicts  |          ORIGINAL         |          LEARNT          | Progress |
|            |    Vars  Clauses Literals |    Limit  Clauses Lit/Cl |          |
================================================================================
|        100 |     448     8048    49480 |     2950      100     11 | 13.954 % |
|        250 |     448     8048    49480 |     3246      250     12 | 13.954 % |
|        475 |     448     8048    49480 |     3570      475     13 | 13.954 % |
|        812 |     448     8048    49480 |     3927      812     15 | 13.954 % |
|       1318 |     448     8048    49480 |     4320     1318     14 | 13.954 % |
|       2077 |     448     8048    49480 |     4752     2077     14 | 13.954 % |
|       3216 |     448     8048    49480 |     5227     3216     15 | 13.954 % |
|       4924 |     448     8048    49480 |     5750     4924     15 | 13.954 % |
|       7486 |     448     8048    49480 |     6325     4520     15 | 13.954 % |
|      11330 |     448     8048    49480 |     6958     5134     15 | 13.954 % |
|      17096 |     448     8048    49480 |     7653     3701     15 | 13.954 % |
|      25745 |     448     8048    49480 |     8419     4508     14 | 13.954 % |
|      38719 |     448     8048    49480 |     9261     4538     14 | 13.954 % |
|      58180 |     448     8048    49480 |    10187     5161     14 | 13.954 % |
|      87372 |     448     8048    49480 |    11206     8477     15 | 13.954 % |
|     131161 |     448     8048    49480 |    12326     6594     14 | 13.954 % |
|     196845 |     448     8048    49480 |    13559     9578     16 | 13.954 % |
|     295371 |     448     8048    49480 |    14915    11992     14 | 13.954 % |
|     443160 |     448     8048    49480 |    16406     8844     15 | 13.954 % |
|     664843 |     448     8048    49480 |    18047    15038     15 | 13.954 % |
|     997368 |     448     8048    49480 |    19852    10492     16 | 13.954 % |
|    1496156 |     448     8048    49480 |    21837    18562     14 | 13.954 % |
|    2244338 |     448     8048    49480 |    24021    18114     14 | 13.954 % |
|    3366612 |     448     8048    49480 |    26423    15465     14 | 13.954 % |
|    5050023 |     448     8048    49480 |    29065    19540     16 | 13.954 % |
|    7575139 |     448     8048    49480 |    31972    29082     19 | 13.954 % |
===============================================================================
restarts              : 13429
conflicts             : 8335818        (36204 /sec)
decisions             : 10840910       (0.00 % random) (47084 /sec)
propagations          : 198754156      (863233 /sec)
conflict literals     : 139770471      (7.55 % deleted)
Memory used           : 32.00 MB
CPU time              : 230.244 s

SATISFIABLE
